1 0 
2 14 
3 17 
4 17 
5 16 
6 19 
7 17 
8 5 
9 12 
10 4 
11 2 
12 2 
13 26 
14 2 
15 7 
16 18 
17 6 
18 6 
19 18 
20 2 
21 14 
22 5 
23 9 
24 4 
25 3 
26 15 
27 4 
28 23 
29 7 
30 21 
31 4 
32 1 
33 6 
34 16 
35 4 
36 20 
37 5 
38 14 
39 14 
40 26 
41 5 
42 2 
43 14 
44 11 
45 21 
46 20 
47 18 
48 2 
49 19 
50 12 
51 22 
52 14 
53 23 
54 25 
55 8 
56 3 
57 9 
58 21 
59 3 
60 22 
61 6 
62 2 
63 22 
64 20 
65 5 
66 13 
67 6 
68 14 
69 16 
70 12 
71 23 
72 5 
73 12 
74 15 
75 21 
76 4 
77 23 
78 19 
